NAME : B-n67-k10
COMMENT : (Augerat et al, Min no of trucks: 10, Best value: 1033)
TYPE : CVRP
DIMENSION : 67
EDGE_WEIGHT_TYPE : EUC_2D 
CAPACITY : 100
NODE_COORD_SECTION 
1 58 90
2 5 66
3 34 98
4 93 17
5 23 67
6 71 91
7 20 39
8 20 86
9 7 99
10 72 78
11 27 90
12 14 72
13 72 101
14 72 96
15 19 73
16 76 95
17 30 92
18 30 87
19 40 104
20 7 73
21 7 76
22 79 86
23 82 105
24 12 104
25 21 93
26 77 85
27 37 101
28 28 91
29 72 95
30 22 92
31 98 18
DEMAND_SECTION 
1 0 
2 12 
3 12 
4 10 
5 2 
6 23 
7 15 
8 16 
9 26 
10 12 
11 12 
12 26 
13 10 
14 22 
15 4 
16 16 
17 8 
18 23 
19 2 
20 24 
21 12 
22 24 
23 4 
24 19 
25 21 
26 7 
27 15 
28 14 
29 18 
30 7 
31 20 
DEPOT_SECTION 
1  
-1  
EOF 
